evm/ejemplos_dzn/EthPriceMintModule_run_code_of_0_block_52_0_input.dzn
TERM = { '.', s3, s4, s5};
null = '.';
s = 3;
n = 3;
min = 3;
N0 = 0;
ZEROARYOP = {};
zeroout = [];
zerogas = [];
zerosz =  [];
zerolb =  [];
zeroub =  [];
N1 = 0;
UNARYOP = {};
unin =  [];
unout = [];
ungas = [];
unsz =  [];
unlb =  [];
unub =  [];
N2 = 0;
BINARYOP = {};
binin1 =  [];
binin2 =  [];
binout = [];
bincomm = [];
bingas = [];
binsz =  [];
binlb =  [];
binub =  [];
NA = 0;
ASSOCIATIVEADDOP = {};
naddin =  [];
addin =  [||];
addout = [];
addcomm = [];
addgas = [];
addsz =  [];
addlb =  [];
addub =  [];
NPUSH = 3;
PUSHOP = { 'PUSH [tag]_0', 'PUSH [tag]_1', PUSH_0 };
pushout = [ s3, s4, s5 ];
pushgas = [ 3, 3, 3 ];
pushsz = [ 3, 3, 2 ];
pushlb = [ 1, 1, 1 ];
pushub = [ 3, 3, 3 ];
NSTORE = 0;
STOROP = {};
storin1 =  [];
storin2 =  [];
storlb =  [];
storub =  [];
storgas = [];
storsz = [];
DUP_ENUM = { DUP1, DUP2};
SWAP_ENUM = { SWAP1, SWAP2};
startstack = [ null, null, null ];
endstack = [ s3, s4, s5 ];
lib = true;
order_output = [| s3, s4, 1 |];;
m_dep_n = 0;
memory_dependences = [| |];
s_dep_n = 0;
store_dependences = [| |];
