evm/ejemplos_results/EthPriceMintModule_run_code_of_0_block_52_0_input.txt
value = 3;
fgas = [3, 3, 3];
fsize = [2, 3, 3];
states = 
[| '.', '.', '.'
 |  s5, '.', '.'
 |  s4,  s5, '.'
 |  s3,  s4,  s5
 |];
program = [P(PUSH_0), P('PUSH [tag]_1'), P('PUSH [tag]_0')];
% time elapsed: 0.94 s
----------
==========
% time elapsed: 0.94 s
% [value > 2]
